2
28
83
55 61 51 75 17 22 4 13 39 28 77 49 46 91 14 67 88 62 25 37 69 38 59 62 48 88 100 53 
96 16 34 53 88 6 50 26 76 10 8 4 37 18 73 54 30 31 97 2 28 24 2 30 79 77 33 86 
16
98
20 16 45 73 99 87 38 53 99 99 38 65 22 17 17 51 
31 21 78 53 18 66 61 4 11 65 16 99 87 91 44 23

-->

474
356

